width = 34;

n_circuits = 21;

circuit_x = array1d(1..21, [3, 3, 3, 3, 3, 3, 3, 3, 3, 3, 3, 3, 3, 3, 3, 3, 4, 4,
    4, 4, 12]);

circuit_y = array1d(1..21, [3, 4, 5, 6, 7, 8, 9, 10, 11, 12, 13, 14, 21, 22, 25,
    34, 4, 5, 11, 14, 34]);

opt_height = 34;

max_y = 34;

